
--- Job Punto2_L1.gms Start 02/18/23 14:55:07 41.5.0 2a5a4ddc WEX-WEI x86 64bit/MS Windows
--- Applying:
    C:\GAMS\41\gmsprmNT.txt
--- GAMS Parameters defined
    Input "C:\Users\elpin\OneDrive - Universidad de los Andes\7mo_semestre\MOS\labs\Labs_MOS\lab1\Punto2_L1.gms"
    PageSize 0
    ScrDir "C:\Users\elpin\OneDrive - Universidad de los Andes\7mo_semestre\MOS\labs\Labs_MOS\lab1\225a\"
    SysDir C:\GAMS\41\
    LogOption 3
    ErrMsg 1
    ErrorLog 99
    IDE 1
    LstTitleLeftAligned 1
Licensee: GAMS Demo license for William Mendez           G230124|0002CO-GEN
          Universidad de los Andes, Colombia                       DL083586
          C:\GAMS\41\gamslice.txt
          w.mendez@uniandes.edu.co, William Mendez                         
          Demo license for demonstration and instructional purposes only
Processor information: 1 socket(s), 4 core(s), and 8 thread(s) available
GAMS 41.5.0   Copyright (C) 1987-2023 GAMS Development. All rights reserved
--- Starting compilation
--- Punto2_L1.gms(40) 3 Mb
--- Starting execution: elapsed 0:00:00.012
--- Punto2_L1.gms(36) 4 Mb
--- Generating MIP model modell
--- Punto2_L1.gms(37) 4 Mb
---   9 rows  17 columns  49 non-zeroes
---   16 discrete-columns
--- Range statistics (absolute non-zero finite values)
--- RHS       [min, max] : [ 1.000E+00, 1.000E+00] - Zero values observed as well
--- Bound     [min, max] : [ 1.000E+00, 1.000E+00] - Zero values observed as well
--- Matrix    [min, max] : [ 1.000E+00, 1.400E+01]
--- Executing CPLEX (Solvelink=2): elapsed 0:00:00.024

IBM ILOG CPLEX   41.5.0 2a5a4ddc Jan 3, 2023           WEI x86 64bit/MS Window

--- *** This solver runs with a demo license. No commercial use.
--- GMO setup time: 0.00s
--- GMO memory 0.50 Mb (peak 0.50 Mb)
--- Dictionary memory 0.00 Mb
--- Cplex 22.1.0.0 link memory 0.00 Mb (peak 0.00 Mb)
--- Starting Cplex

Version identifier: 22.1.0.0 | 2022-03-09 | 1a383f8ce
CPXPARAM_Advance                                 0
CPXPARAM_Simplex_Display                         2
CPXPARAM_Threads                                 1
CPXPARAM_MIP_Display                             4
CPXPARAM_MIP_Pool_Capacity                       0
CPXPARAM_MIP_Tolerances_AbsMIPGap                0
Generic callback                                 0x50
Found incumbent of value 39.000000 after 0.00 sec. (0.00 ticks)
Tried aggregator 1 time.
MIP Presolve eliminated 0 rows and 1 columns.
Reduced MIP has 8 rows, 16 columns, and 32 nonzeros.
Reduced MIP has 16 binaries, 0 generals, 0 SOSs, and 0 indicators.
Presolve time = 0.00 sec. (0.02 ticks)
Probing time = 0.00 sec. (0.01 ticks)
Tried aggregator 1 time.
Detecting symmetries...
Reduced MIP has 8 rows, 16 columns, and 32 nonzeros.
Reduced MIP has 16 binaries, 0 generals, 0 SOSs, and 0 indicators.
Presolve time = 0.00 sec. (0.02 ticks)
Probing time = 0.00 sec. (0.01 ticks)
Clique table members: 8.
MIP emphasis: balance optimality and feasibility.
MIP search method: dynamic search.
Parallel mode: none, using 1 thread.
Tried aggregator 1 time.
No LP presolve or aggregator reductions.
Presolve time = 0.00 sec. (0.00 ticks)
Initializing dual steep norms . . .

Iteration      Dual Objective            In Variable           Out Variable
     1              13.000000                 x(3,2)restriUnaPorCadaT artif
     2              14.000000                 x(4,1)                 x(3,1)
     3              15.000000                 x(2,1)restriUnaPorCadaT artif
Root relaxation solution time = 0.00 sec. (0.01 ticks)

        Nodes                                         Cuts/
   Node  Left     Objective  IInf  Best Integer    Best Bound    ItCnt     Gap

*     0+    0                           39.0000        0.0000           100.00%
Found incumbent of value 39.000000 after 0.00 sec. (0.09 ticks)
*     0     0      integral     0       15.0000       15.0000        3    0.00%
Elapsed time = 0.00 sec. (0.10 ticks, tree = 0.00 MB)
Found incumbent of value 15.000000 after 0.00 sec. (0.10 ticks)

Root node processing (before b&c):
  Real time             =    0.00 sec. (0.10 ticks)
Sequential b&c:
  Real time             =    0.00 sec. (0.00 ticks)
                          ------------
Total (root+branch&cut) =    0.00 sec. (0.10 ticks)

--- MIP status (101): integer optimal solution.
--- Cplex Time: 0.00sec (det. 0.10 ticks)

--- Fixing integer variables and solving final LP...

Version identifier: 22.1.0.0 | 2022-03-09 | 1a383f8ce
CPXPARAM_Advance                                 2
CPXPARAM_Simplex_Display                         2
CPXPARAM_Threads                                 1
CPXPARAM_MIP_Display                             4
CPXPARAM_MIP_Pool_Capacity                       0
CPXPARAM_MIP_Tolerances_AbsMIPGap                0
Tried aggregator 1 time.
LP Presolve eliminated 8 rows and 17 columns.
All rows and columns eliminated.
Presolve time = 0.00 sec. (0.01 ticks)

--- Fixed MIP status (1): optimal.
--- Cplex Time: 0.00sec (det. 0.01 ticks)


Proven optimal solution
MIP Solution:           15.000000    (3 iterations, 0 nodes)
Final Solve:            15.000000    (0 iterations)

Best possible:          15.000000
Absolute gap:            0.000000
Relative gap:            0.000000

--- Reading solution for model modell
--- Executing after solve: elapsed 0:00:00.195
--- Punto2_L1.gms(40) 4 Mb
*** Status: Normal completion
--- Job Punto2_L1.gms Stop 02/18/23 14:55:07 elapsed 0:00:00.195
